; benchmark generated from python API
(set-info :status unknown)
(declare-fun x_month () Int)
(declare-fun x_year () Int)
(declare-fun x_day () Int)
(assert
 (let (($x508 (or (= x_month 4) (= x_month 6) (= x_month 9) (= x_month 11))))
 (let ((?x509 (ite $x508 30 31)))
 (let (($x491 (= (mod x_year 400) 0)))
 (let (($x478 (= (mod x_year 4) 0)))
 (let ((?x493 (ite (or (and $x478 (and (distinct (mod x_year 100) 0) true)) $x491) 29 28)))
 (let (($x476 (= x_month 2)))
 (let (($x404 (<= x_day (ite $x476 ?x493 ?x509))))
 (let (($x403 (>= x_day 1)))
 (let (($x415 (<= x_month 2)))
 (let (($x411 (>= x_month 1)))
 (let (($x414 (= x_year 2100)))
 (let (($x409 (<= x_month 12)))
 (let (($x410 (<= x_year 2099)))
 (let (($x407 (>= x_year 1901)))
 (or (and (= x_year 1900) (>= x_month 3) $x409 $x403 $x404) (and $x407 $x410 $x411 $x409 $x403 $x404) (and $x414 $x411 $x415 $x403 $x404)))))))))))))))))
(assert
 (let (($x466 (= x_year 2023)))
 (let (($x481 (and $x466 (or (> x_month 1) (and (= x_month 1) (>= x_day 1))))))
 (or (> x_year 2023) $x481))))
(assert
 (let (($x466 (= x_year 2023)))
 (let (($x470 (and $x466 (or (< x_month 1) (and (= x_month 1) (<= x_day 31))))))
 (or (< x_year 2023) $x470))))
(assert
 (let ((?x732 (+ (mod (- (+ x_month (+ (* 0 12) 0)) 1) 12) 1)))
(let ((?x741 (ite (or (= ?x732 4) (= ?x732 6) (= ?x732 9) (= ?x732 11)) 30 31)))
(let ((?x731 (+ 0 (div (- (+ x_month (+ (* 0 12) 0)) 1) 12))))
(let ((?x733 (+ x_year ?x731)))
(let (($x734 (or (and (= (mod ?x733 4) 0) (and (distinct (mod ?x733 100) 0) true)) (= (mod ?x733 400) 0))))
(let ((?x742 (ite (= ?x732 2) (ite $x734 29 28) ?x741)))
(let (($x702 (< x_day 1)))
(let ((?x745 (ite $x702 1 (ite (> x_day ?x742) ?x742 x_day))))
(let ((?x749 (ite (< ?x745 1) 1 (ite (> ?x745 ?x742) ?x742 ?x745))))
(let ((?x764 (ite (= 2 ?x732) (ite $x734 31 31) (ite (= 1 ?x732) (ite $x734 0 0) 0))))
(let ((?x770 (ite (= 4 ?x732) (ite $x734 91 90) (ite (= 3 ?x732) (ite $x734 60 59) ?x764))))
(let ((?x776 (ite (= 6 ?x732) (ite $x734 152 151) (ite (= 5 ?x732) (ite $x734 121 120) ?x770))))
(let ((?x782 (ite (= 8 ?x732) (ite $x734 213 212) (ite (= 7 ?x732) (ite $x734 182 181) ?x776))))
(let ((?x788 (ite (= 10 ?x732) (ite $x734 274 273) (ite (= 9 ?x732) (ite $x734 244 243) ?x782))))
(let ((?x794 (ite (= 12 ?x732) (ite $x734 335 334) (ite (= 11 ?x732) (ite $x734 305 304) ?x788))))
(let ((?x756 (- (+ (* 365 (- ?x733 1)) (div (- ?x733 1) 4)) (div (- ?x733 1) 100))))
(let ((?x798 (- (+ (+ (+ ?x756 (div (- ?x733 1) 400)) ?x794) (- ?x749 1)) 730179)))
(let ((?x800 (+ (+ ?x798 30) 730179)))
(let ((?x802 (mod ?x800 146097)))
(let ((?x803 (div ?x802 36524)))
(let ((?x805 (ite (<= 4 ?x803) 3 ?x803)))
(let ((?x807 (- ?x802 (* ?x805 36524))))
(let ((?x809 (mod ?x807 1461)))
(let ((?x810 (div ?x809 365)))
(let ((?x812 (ite (<= 4 ?x810) 3 ?x810)))
(let ((?x819 (+ (+ (* (div ?x800 146097) 400) (* ?x805 100)) (* (div ?x807 1461) 4))))
(let ((?x821 (+ (+ ?x819 ?x812) 1)))
(let (($x829 (or (and (= (mod ?x821 4) 0) (and (distinct (mod ?x821 100) 0) true)) (= (mod ?x821 400) 0))))
(let ((?x814 (- ?x809 (* ?x812 365))))
(let ((?x831 (ite $x829 31 31)))
(let (($x842 (>= ?x814 ?x831)))
(let ((?x868 (ite $x842 (+ (- ?x814 ?x831) 1) (+ (- ?x814 (ite $x829 0 0)) 1))))
(let ((?x832 (ite $x829 60 59)))
(let (($x844 (>= ?x814 ?x832)))
(let ((?x833 (ite $x829 91 90)))
(let (($x846 (>= ?x814 ?x833)))
(let ((?x874 (ite $x846 (+ (- ?x814 ?x833) 1) (ite $x844 (+ (- ?x814 ?x832) 1) ?x868))))
(let ((?x834 (ite $x829 121 120)))
(let (($x848 (>= ?x814 ?x834)))
(let ((?x835 (ite $x829 152 151)))
(let (($x850 (>= ?x814 ?x835)))
(let ((?x880 (ite $x850 (+ (- ?x814 ?x835) 1) (ite $x848 (+ (- ?x814 ?x834) 1) ?x874))))
(let ((?x836 (ite $x829 182 181)))
(let (($x852 (>= ?x814 ?x836)))
(let ((?x837 (ite $x829 213 212)))
(let (($x854 (>= ?x814 ?x837)))
(let ((?x886 (ite $x854 (+ (- ?x814 ?x837) 1) (ite $x852 (+ (- ?x814 ?x836) 1) ?x880))))
(let ((?x838 (ite $x829 244 243)))
(let (($x856 (>= ?x814 ?x838)))
(let ((?x839 (ite $x829 274 273)))
(let (($x858 (>= ?x814 ?x839)))
(let ((?x892 (ite $x858 (+ (- ?x814 ?x839) 1) (ite $x856 (+ (- ?x814 ?x838) 1) ?x886))))
(let ((?x840 (ite $x829 305 304)))
(let (($x860 (>= ?x814 ?x840)))
(let ((?x841 (ite $x829 335 334)))
(let (($x862 (>= ?x814 ?x841)))
(let ((?x898 (ite $x862 (+ (- ?x814 ?x841) 1) (ite $x860 (+ (- ?x814 ?x840) 1) ?x892))))
(let (($x750 (= 0 30)))
(let ((?x719 (+ (mod (- (+ x_month (+ (* 0 12) 1)) 1) 12) 1)))
(let ((?x661 (ite (or (= ?x719 4) (= ?x719 6) (= ?x719 9) (= ?x719 11)) 30 31)))
(let ((?x674 (+ 0 (div (- (+ x_month (+ (* 0 12) 1)) 1) 12))))
(let ((?x722 (+ x_year ?x674)))
(let (($x680 (or (and (= (mod ?x722 4) 0) (and (distinct (mod ?x722 100) 0) true)) (= (mod ?x722 400) 0))))
(let ((?x667 (ite (= ?x719 2) (ite $x680 29 28) ?x661)))
(let ((?x701 (ite $x702 1 (ite (> x_day ?x667) ?x667 x_day))))
(let ((?x707 (ite (< ?x701 1) 1 (ite (> ?x701 ?x667) ?x667 ?x701))))
(let ((?x535 (ite (= 2 ?x719) (ite $x680 31 31) (ite (= 1 ?x719) (ite $x680 0 0) 0))))
(let ((?x549 (ite (= 4 ?x719) (ite $x680 91 90) (ite (= 3 ?x719) (ite $x680 60 59) ?x535))))
(let ((?x561 (ite (= 6 ?x719) (ite $x680 152 151) (ite (= 5 ?x719) (ite $x680 121 120) ?x549))))
(let ((?x571 (ite (= 8 ?x719) (ite $x680 213 212) (ite (= 7 ?x719) (ite $x680 182 181) ?x561))))
(let ((?x572 (ite (= 10 ?x719) (ite $x680 274 273) (ite (= 9 ?x719) (ite $x680 244 243) ?x571))))
(let ((?x631 (ite (= 12 ?x719) (ite $x680 335 334) (ite (= 11 ?x719) (ite $x680 305 304) ?x572))))
(let ((?x537 (- (+ (* 365 (- ?x722 1)) (div (- ?x722 1) 4)) (div (- ?x722 1) 100))))
(let ((?x641 (- (+ (+ (+ ?x537 (div (- ?x722 1) 400)) ?x631) (- ?x707 1)) 730179)))
(let ((?x632 (+ (+ ?x641 0) 730179)))
(let ((?x580 (mod ?x632 146097)))
(let ((?x579 (div ?x580 36524)))
(let ((?x620 (ite (<= 4 ?x579) 3 ?x579)))
(let ((?x688 (- ?x580 (* ?x620 36524))))
(let ((?x686 (mod ?x688 1461)))
(let ((?x585 (div ?x686 365)))
(let ((?x608 (ite (<= 4 ?x585) 3 ?x585)))
(let ((?x611 (+ (+ (* (div ?x632 146097) 400) (* ?x620 100)) (* (div ?x688 1461) 4))))
(let ((?x584 (+ (+ ?x611 ?x608) 1)))
(let (($x594 (or (and (= (mod ?x584 4) 0) (and (distinct (mod ?x584 100) 0) true)) (= (mod ?x584 400) 0))))
(let ((?x609 (- ?x686 (* ?x608 365))))
(let ((?x595 (ite $x594 31 31)))
(let (($x565 (>= ?x609 ?x595)))
(let ((?x650 (ite $x565 (+ (- ?x609 ?x595) 1) (+ (- ?x609 (ite $x594 0 0)) 1))))
(let ((?x684 (ite $x594 60 59)))
(let (($x693 (>= ?x609 ?x684)))
(let ((?x685 (ite $x594 91 90)))
(let (($x695 (>= ?x609 ?x685)))
(let ((?x548 (ite $x695 (+ (- ?x609 ?x685) 1) (ite $x693 (+ (- ?x609 ?x684) 1) ?x650))))
(let ((?x607 (ite $x594 121 120)))
(let (($x715 (>= ?x609 ?x607)))
(let ((?x629 (ite $x594 152 151)))
(let (($x717 (>= ?x609 ?x629)))
(let ((?x640 (ite $x717 (+ (- ?x609 ?x629) 1) (ite $x715 (+ (- ?x609 ?x607) 1) ?x548))))
(let ((?x630 (ite $x594 182 181)))
(let (($x676 (>= ?x609 ?x630)))
(let ((?x627 (ite $x594 213 212)))
(let (($x678 (>= ?x609 ?x627)))
(let ((?x515 (ite $x678 (+ (- ?x609 ?x627) 1) (ite $x676 (+ (- ?x609 ?x630) 1) ?x640))))
(let ((?x596 (ite $x594 244 243)))
(let (($x662 (>= ?x609 ?x596)))
(let ((?x645 (ite $x594 274 273)))
(let (($x664 (>= ?x609 ?x645)))
(let ((?x551 (ite $x664 (+ (- ?x609 ?x645) 1) (ite $x662 (+ (- ?x609 ?x596) 1) ?x515))))
(let ((?x593 (ite $x594 305 304)))
(let (($x666 (>= ?x609 ?x593)))
(let ((?x558 (ite $x594 335 334)))
(let (($x656 (>= ?x609 ?x558)))
(let ((?x622 (ite $x656 (+ (- ?x609 ?x558) 1) (ite $x666 (+ (- ?x609 ?x593) 1) ?x551))))
(let (($x691 (= 0 0)))
(let ((?x849 (ite $x848 5 (ite $x846 4 (ite $x844 3 (ite $x842 2 1))))))
(let ((?x857 (ite $x856 9 (ite $x854 8 (ite $x852 7 (ite $x850 6 ?x849))))))
(let ((?x863 (ite $x862 12 (ite $x860 11 (ite $x858 10 ?x857)))))
(let ((?x716 (ite $x715 5 (ite $x695 4 (ite $x693 3 (ite $x565 2 1))))))
(let ((?x663 (ite $x662 9 (ite $x678 8 (ite $x676 7 (ite $x717 6 ?x716))))))
(let (($x447 (= (ite $x691 ?x719 (ite $x656 12 (ite $x666 11 (ite $x664 10 ?x663)))) (ite $x750 ?x732 ?x863))))
(let (($x902 (and (= (ite $x691 ?x722 ?x584) (ite $x750 ?x733 ?x821)) $x447 (= (ite $x691 ?x707 ?x622) (ite $x750 ?x749 ?x898)))))
(not $x902))))))))))))))))))))))))))))))))))))))))))))))))))))))))))))))))))))))))))))))))))))))))))))))))))))))))))))))))))))))))))))
(check-sat)
